58
 1 580 10
 2 684 12
 3 728 13
 4 825 15
 5 108 2
 6 636 12
 7 676 13
 8 306 6
 9 800 16
 10 98 2
 11 816 17
 12 188 4
 13 920 20
 14 450 10
 15 352 8
 16 344 8
 17 252 6
 18 820 20
 19 720 18
 20 390 10
 21 456 12
 22 555 15
 23 576 16
 24 490 14
 25 306 9
 26 66 2
 27 96 3
 28 124 4
 29 570 19
 30 580 20
 31 252 9
 32 108 4
 33 156 6
 34 225 9
 35 384 16
 36 345 15
 37 330 15
 38 378 18
 39 120 6
 40 247 13
 41 198 11
 42 306 18
 43 64 4
 44 210 14
 45 84 6
 46 91 7
 47 120 10
 48 165 15
 49 130 13
 50 126 14
 51 152 19
 52 7 1
 53 42 7
 54 60 12
 55 48 12
 56 51 17
 57 2 1
 58 10 10
406